p cnf 512 1295
a 2 8 31 77 9 3 20 61 14 1 7 55 19 50 36 25 30 41 116 60 111 99 66 94 82 71 76 87 104 170 121 165 153 126 148 136 131 141 158 175 216 182 211 199 187 192 204 221 240 228 233 245 260 252 256 290 285 273 265 269 278 346 296 341 329 300 324 312 304 308 317 334 401 351 395 359 355 384 379 367 363 372 388 407 442 437 425 414 418 430 448 466 455 459 471 0
d 291 2 20 0
d 443 31 61 0
d 396 359 384 0
d 4 2 3 0
d 5 1 2 3 0
d 6 1 2 3 0
d 10 8 9 0
d 11 7 8 9 0
d 12 7 8 9 0
d 13 1 2 3 7 8 9 0
d 15 1 7 0
d 16 14 1 7 0
d 17 14 1 7 0
d 18 1 2 3 7 8 9 14 0
d 21 2 20 0
d 22 19 2 20 0
d 23 19 2 20 0
d 24 1 2 3 7 8 9 14 19 20 0
d 26 8 3 0
d 27 25 8 3 0
d 28 25 8 3 0
d 29 1 2 3 7 8 9 14 19 20 25 0
d 32 31 9 0
d 33 30 31 9 0
d 34 30 31 9 0
d 35 1 2 3 7 8 9 14 19 20 25 30 31 0
d 37 25 30 0
d 38 36 25 30 0
d 39 36 25 30 0
d 40 1 2 3 7 8 9 14 19 20 25 30 31 36 0
d 42 2 0
d 43 2 0
d 44 14 2 0
d 45 1 7 0
d 46 14 2 1 7 0
d 47 41 14 2 1 7 0
d 48 41 14 2 1 7 0
d 49 1 2 3 7 8 9 14 19 20 25 30 31 36 41 0
d 51 36 41 0
d 52 50 36 41 0
d 53 50 36 41 0
d 54 1 2 3 7 8 9 14 19 20 25 30 31 36 41 50 0
d 56 19 50 0
d 57 55 19 50 0
d 58 55 19 50 0
d 59 1 2 3 7 8 9 14 19 20 25 30 31 36 41 50 55 0
d 62 2 61 0
d 63 60 2 61 0
d 64 60 2 61 0
d 65 1 2 3 7 8 9 14 19 20 25 30 31 36 41 50 55 60 61 0
d 67 8 20 0
d 68 66 8 20 0
d 69 66 8 20 0
d 70 1 2 3 7 8 9 14 19 20 25 30 31 36 41 50 55 60 61 66 0
d 72 31 3 0
d 73 71 31 3 0
d 74 71 31 3 0
d 75 1 2 3 7 8 9 14 19 20 25 30 31 36 41 50 55 60 61 66 71 0
d 78 77 9 0
d 79 76 77 9 0
d 80 76 77 9 0
d 81 1 2 3 7 8 9 14 19 20 25 30 31 36 41 50 55 60 61 66 71 76 77 0
d 83 71 76 0
d 84 82 71 76 0
d 85 82 71 76 0
d 86 1 2 3 7 8 9 14 19 20 25 30 31 36 41 50 55 60 61 66 71 76 77 82 0
d 88 36 41 0
d 89 25 30 0
d 90 36 41 25 30 0
d 91 87 36 41 25 30 0
d 92 87 36 41 25 30 0
d 93 1 2 3 7 8 9 14 19 20 25 30 31 36 41 50 55 60 61 66 71 76 77 82 87 0
d 95 82 87 0
d 96 94 82 87 0
d 97 94 82 87 0
d 98 1 2 3 7 8 9 14 19 20 25 30 31 36 41 50 55 60 61 66 71 76 77 82 87 94 0
d 100 66 94 0
d 101 99 66 94 0
d 102 99 66 94 0
d 103 1 2 3 7 8 9 14 19 20 25 30 31 36 41 50 55 60 61 66 71 76 77 82 87 94 99 0
d 105 55 2 0
d 106 19 50 0
d 107 55 2 19 50 0
d 108 104 55 2 19 50 0
d 109 104 55 2 19 50 0
d 110 1 2 3 7 8 9 14 19 20 25 30 31 36 41 50 55 60 61 66 71 76 77 82 87 94 99 104 0
d 112 99 104 0
d 113 111 99 104 0
d 114 111 99 104 0
d 115 1 2 3 7 8 9 14 19 20 25 30 31 36 41 50 55 60 61 66 71 76 77 82 87 94 99 104 111 0
d 117 60 111 0
d 118 116 60 111 0
d 119 116 60 111 0
d 120 1 2 3 7 8 9 14 19 20 25 30 31 36 41 50 55 60 61 66 71 76 77 82 87 94 99 104 111 116 0
d 122 8 61 0
d 123 121 8 61 0
d 124 121 8 61 0
d 125 1 2 3 7 8 9 14 19 20 25 30 31 36 41 50 55 60 61 66 71 76 77 82 87 94 99 104 111 116 121 0
d 127 31 20 0
d 128 126 31 20 0
d 129 126 31 20 0
d 130 1 2 3 7 8 9 14 19 20 25 30 31 36 41 50 55 60 61 66 71 76 77 82 87 94 99 104 111 116 121 126 0
d 132 77 3 0
d 133 131 77 3 0
d 134 131 77 3 0
d 135 1 2 3 7 8 9 14 19 20 25 30 31 36 41 50 55 60 61 66 71 76 77 82 87 94 99 104 111 116 121 126 131 0
d 137 131 2 0
d 138 136 131 2 0
d 139 136 131 2 0
d 140 1 2 3 7 8 9 14 19 20 25 30 31 36 41 50 55 60 61 66 71 76 77 82 87 94 99 104 111 116 121 126 131 136 0
d 142 82 87 0
d 143 71 76 0
d 144 82 87 71 76 0
d 145 141 82 87 71 76 0
d 146 141 82 87 71 76 0
d 147 1 2 3 7 8 9 14 19 20 25 30 31 36 41 50 55 60 61 66 71 76 77 82 87 94 99 104 111 116 121 126 131 136 141 0
d 149 136 141 0
d 150 148 136 141 0
d 151 148 136 141 0
d 152 1 2 3 7 8 9 14 19 20 25 30 31 36 41 50 55 60 61 66 71 76 77 82 87 94 99 104 111 116 121 126 131 136 141 148 0
d 154 126 148 0
d 155 153 126 148 0
d 156 153 126 148 0
d 157 1 2 3 7 8 9 14 19 20 25 30 31 36 41 50 55 60 61 66 71 76 77 82 87 94 99 104 111 116 121 126 131 136 141 148 153 0
d 159 99 104 0
d 160 66 94 0
d 161 99 104 66 94 0
d 162 158 99 104 66 94 0
d 163 158 99 104 66 94 0
d 164 1 2 3 7 8 9 14 19 20 25 30 31 36 41 50 55 60 61 66 71 76 77 82 87 94 99 104 111 116 121 126 131 136 141 148 153 158 0
d 166 153 158 0
d 167 165 153 158 0
d 168 165 153 158 0
d 169 1 2 3 7 8 9 14 19 20 25 30 31 36 41 50 55 60 61 66 71 76 77 82 87 94 99 104 111 116 121 126 131 136 141 148 153 158 165 0
d 171 121 165 0
d 172 170 121 165 0
d 173 170 121 165 0
d 174 1 2 3 7 8 9 14 19 20 25 30 31 36 41 50 55 60 61 66 71 76 77 82 87 94 99 104 111 116 121 126 131 136 141 148 153 158 165 170 0
d 176 116 2 0
d 177 60 111 0
d 178 116 2 60 111 0
d 179 175 116 2 60 111 0
d 180 175 116 2 60 111 0
d 181 1 2 3 7 8 9 14 19 20 25 30 31 36 41 50 55 60 61 66 71 76 77 82 87 94 99 104 111 116 121 126 131 136 141 148 153 158 165 170 175 0
d 183 31 61 0
d 184 182 31 61 0
d 185 182 31 61 0
d 186 1 2 3 7 8 9 14 19 20 25 30 31 36 41 50 55 60 61 66 71 76 77 82 87 94 99 104 111 116 121 126 131 136 141 148 153 158 165 170 175 182 0
d 188 77 20 0
d 189 187 77 20 0
d 190 187 77 20 0
d 191 1 2 3 7 8 9 14 19 20 25 30 31 36 41 50 55 60 61 66 71 76 77 82 87 94 99 104 111 116 121 126 131 136 141 148 153 158 165 170 175 182 187 0
d 193 136 141 0
d 194 131 2 0
d 195 136 141 131 2 0
d 196 192 136 141 131 2 0
d 197 192 136 141 131 2 0
d 198 1 2 3 7 8 9 14 19 20 25 30 31 36 41 50 55 60 61 66 71 76 77 82 87 94 99 104 111 116 121 126 131 136 141 148 153 158 165 170 175 182 187 192 0
d 200 187 192 0
d 201 199 187 192 0
d 202 199 187 192 0
d 203 1 2 3 7 8 9 14 19 20 25 30 31 36 41 50 55 60 61 66 71 76 77 82 87 94 99 104 111 116 121 126 131 136 141 148 153 158 165 170 175 182 187 192 199 0
d 205 153 158 0
d 206 126 148 0
d 207 153 158 126 148 0
d 208 204 153 158 126 148 0
d 209 204 153 158 126 148 0
d 210 1 2 3 7 8 9 14 19 20 25 30 31 36 41 50 55 60 61 66 71 76 77 82 87 94 99 104 111 116 121 126 131 136 141 148 153 158 165 170 175 182 187 192 199 204 0
d 212 199 204 0
d 213 211 199 204 0
d 214 211 199 204 0
d 215 1 2 3 7 8 9 14 19 20 25 30 31 36 41 50 55 60 61 66 71 76 77 82 87 94 99 104 111 116 121 126 131 136 141 148 153 158 165 170 175 182 187 192 199 204 211 0
d 217 182 211 0
d 218 216 182 211 0
d 219 216 182 211 0
d 220 1 2 3 7 8 9 14 19 20 25 30 31 36 41 50 55 60 61 66 71 76 77 82 87 94 99 104 111 116 121 126 131 136 141 148 153 158 165 170 175 182 187 192 199 204 211 216 0
d 222 170 175 0
d 223 121 165 0
d 224 170 175 121 165 0
d 225 221 170 175 121 165 0
d 226 221 170 175 121 165 0
d 227 1 2 3 7 8 9 14 19 20 25 30 31 36 41 50 55 60 61 66 71 76 77 82 87 94 99 104 111 116 121 126 131 136 141 148 153 158 165 170 175 182 187 192 199 204 211 216 221 0
d 229 77 61 0
d 230 228 77 61 0
d 231 228 77 61 0
d 232 1 2 3 7 8 9 14 19 20 25 30 31 36 41 50 55 60 61 66 71 76 77 82 87 94 99 104 111 116 121 126 131 136 141 148 153 158 165 170 175 182 187 192 199 204 211 216 221 228 0
d 234 199 204 0
d 235 187 192 0
d 236 199 204 187 192 0
d 237 233 199 204 187 192 0
d 238 233 199 204 187 192 0
d 239 1 2 3 7 8 9 14 19 20 25 30 31 36 41 50 55 60 61 66 71 76 77 82 87 94 99 104 111 116 121 126 131 136 141 148 153 158 165 170 175 182 187 192 199 204 211 216 221 228 233 0
d 241 228 233 0
d 242 240 228 233 0
d 243 240 228 233 0
d 244 1 2 3 7 8 9 14 19 20 25 30 31 36 41 50 55 60 61 66 71 76 77 82 87 94 99 104 111 116 121 126 131 136 141 148 153 158 165 170 175 182 187 192 199 204 211 216 221 228 233 240 0
d 246 216 221 0
d 247 182 211 0
d 248 216 221 182 211 0
d 249 245 216 221 182 211 0
d 250 245 216 221 182 211 0
d 251 1 2 3 7 8 9 14 19 20 25 30 31 36 41 50 55 60 61 66 71 76 77 82 87 94 99 104 111 116 121 126 131 136 141 148 153 158 165 170 175 182 187 192 199 204 211 216 221 228 233 240 245 0
d 253 252 2 3 0
d 254 252 2 3 0
d 255 1 2 3 7 8 9 14 19 20 25 30 31 36 41 50 55 60 61 66 71 76 77 82 87 94 99 104 111 116 121 126 131 136 141 148 153 158 165 170 175 182 187 192 199 204 211 216 221 228 233 240 245 252 0
d 257 256 8 9 0
d 258 256 8 9 0
d 259 1 2 3 7 8 9 14 19 20 25 30 31 36 41 50 55 60 61 66 71 76 77 82 87 94 99 104 111 116 121 126 131 136 141 148 153 158 165 170 175 182 187 192 199 204 211 216 221 228 233 240 245 252 256 0
d 261 252 256 0
d 262 260 252 256 0
d 263 260 252 256 0
d 264 1 2 3 7 8 9 14 19 20 25 30 31 36 41 50 55 60 61 66 71 76 77 82 87 94 99 104 111 116 121 126 131 136 141 148 153 158 165 170 175 182 187 192 199 204 211 216 221 228 233 240 245 252 256 260 0
d 266 265 8 3 0
d 267 265 8 3 0
d 268 1 2 3 7 8 9 14 19 20 25 30 31 36 41 50 55 60 61 66 71 76 77 82 87 94 99 104 111 116 121 126 131 136 141 148 153 158 165 170 175 182 187 192 199 204 211 216 221 228 233 240 245 252 256 260 265 0
d 270 269 31 9 0
d 271 269 31 9 0
d 272 1 2 3 7 8 9 14 19 20 25 30 31 36 41 50 55 60 61 66 71 76 77 82 87 94 99 104 111 116 121 126 131 136 141 148 153 158 165 170 175 182 187 192 199 204 211 216 221 228 233 240 245 252 256 260 265 269 0
d 274 265 269 0
d 275 273 265 269 0
d 276 273 265 269 0
d 277 1 2 3 7 8 9 14 19 20 25 30 31 36 41 50 55 60 61 66 71 76 77 82 87 94 99 104 111 116 121 126 131 136 141 148 153 158 165 170 175 182 187 192 199 204 211 216 221 228 233 240 245 252 256 260 265 269 273 0
d 279 260 2 0
d 280 252 256 0
d 281 260 2 252 256 0
d 282 278 260 2 252 256 0
d 283 278 260 2 252 256 0
d 284 1 2 3 7 8 9 14 19 20 25 30 31 36 41 50 55 60 61 66 71 76 77 82 87 94 99 104 111 116 121 126 131 136 141 148 153 158 165 170 175 182 187 192 199 204 211 216 221 228 233 240 245 252 256 260 265 269 273 278 0
d 286 273 278 0
d 287 285 273 278 0
d 288 285 273 278 0
d 289 1 2 3 7 8 9 14 19 20 25 30 31 36 41 50 55 60 61 66 71 76 77 82 87 94 99 104 111 116 121 126 131 136 141 148 153 158 165 170 175 182 187 192 199 204 211 216 221 228 233 240 245 252 256 260 265 269 273 278 285 0
d 292 2 20 285 0
d 293 290 2 20 285 0
d 294 290 2 20 285 0
d 295 1 2 3 7 8 9 14 19 20 25 30 31 36 41 50 55 60 61 66 71 76 77 82 87 94 99 104 111 116 121 126 131 136 141 148 153 158 165 170 175 182 187 192 199 204 211 216 221 228 233 240 245 252 256 260 265 269 273 278 285 290 0
d 297 296 2 61 0
d 298 296 2 61 0
d 299 1 2 3 7 8 9 14 19 20 25 30 31 36 41 50 55 60 61 66 71 76 77 82 87 94 99 104 111 116 121 126 131 136 141 148 153 158 165 170 175 182 187 192 199 204 211 216 221 228 233 240 245 252 256 260 265 269 273 278 285 290 296 0
d 301 300 8 20 0
d 302 300 8 20 0
d 303 1 2 3 7 8 9 14 19 20 25 30 31 36 41 50 55 60 61 66 71 76 77 82 87 94 99 104 111 116 121 126 131 136 141 148 153 158 165 170 175 182 187 192 199 204 211 216 221 228 233 240 245 252 256 260 265 269 273 278 285 290 296 300 0
d 305 304 31 3 0
d 306 304 31 3 0
d 307 1 2 3 7 8 9 14 19 20 25 30 31 36 41 50 55 60 61 66 71 76 77 82 87 94 99 104 111 116 121 126 131 136 141 148 153 158 165 170 175 182 187 192 199 204 211 216 221 228 233 240 245 252 256 260 265 269 273 278 285 290 296 300 304 0
d 309 308 77 9 0
d 310 308 77 9 0
d 311 1 2 3 7 8 9 14 19 20 25 30 31 36 41 50 55 60 61 66 71 76 77 82 87 94 99 104 111 116 121 126 131 136 141 148 153 158 165 170 175 182 187 192 199 204 211 216 221 228 233 240 245 252 256 260 265 269 273 278 285 290 296 300 304 308 0
d 313 304 308 0
d 314 312 304 308 0
d 315 312 304 308 0
d 316 1 2 3 7 8 9 14 19 20 25 30 31 36 41 50 55 60 61 66 71 76 77 82 87 94 99 104 111 116 121 126 131 136 141 148 153 158 165 170 175 182 187 192 199 204 211 216 221 228 233 240 245 252 256 260 265 269 273 278 285 290 296 300 304 308 312 0
d 318 273 278 0
d 319 265 269 0
d 320 273 278 265 269 0
d 321 317 273 278 265 269 0
d 322 317 273 278 265 269 0
d 323 1 2 3 7 8 9 14 19 20 25 30 31 36 41 50 55 60 61 66 71 76 77 82 87 94 99 104 111 116 121 126 131 136 141 148 153 158 165 170 175 182 187 192 199 204 211 216 221 228 233 240 245 252 256 260 265 269 273 278 285 290 296 300 304 308 312 317 0
d 325 312 317 0
d 326 324 312 317 0
d 327 324 312 317 0
d 328 1 2 3 7 8 9 14 19 20 25 30 31 36 41 50 55 60 61 66 71 76 77 82 87 94 99 104 111 116 121 126 131 136 141 148 153 158 165 170 175 182 187 192 199 204 211 216 221 228 233 240 245 252 256 260 265 269 273 278 285 290 296 300 304 308 312 317 324 0
d 330 300 324 0
d 331 329 300 324 0
d 332 329 300 324 0
d 333 1 2 3 7 8 9 14 19 20 25 30 31 36 41 50 55 60 61 66 71 76 77 82 87 94 99 104 111 116 121 126 131 136 141 148 153 158 165 170 175 182 187 192 199 204 211 216 221 228 233 240 245 252 256 260 265 269 273 278 285 290 296 300 304 308 312 317 324 329 0
d 335 290 2 0
d 336 2 20 285 0
d 337 290 2 20 285 0
d 338 334 290 2 20 285 0
d 339 334 290 2 20 285 0
d 340 1 2 3 7 8 9 14 19 20 25 30 31 36 41 50 55 60 61 66 71 76 77 82 87 94 99 104 111 116 121 126 131 136 141 148 153 158 165 170 175 182 187 192 199 204 211 216 221 228 233 240 245 252 256 260 265 269 273 278 285 290 296 300 304 308 312 317 324 329 334 0
d 342 329 334 0
d 343 341 329 334 0
d 344 341 329 334 0
d 345 1 2 3 7 8 9 14 19 20 25 30 31 36 41 50 55 60 61 66 71 76 77 82 87 94 99 104 111 116 121 126 131 136 141 148 153 158 165 170 175 182 187 192 199 204 211 216 221 228 233 240 245 252 256 260 265 269 273 278 285 290 296 300 304 308 312 317 324 329 334 341 0
d 347 296 341 0
d 348 346 296 341 0
d 349 346 296 341 0
d 350 1 2 3 7 8 9 14 19 20 25 30 31 36 41 50 55 60 61 66 71 76 77 82 87 94 99 104 111 116 121 126 131 136 141 148 153 158 165 170 175 182 187 192 199 204 211 216 221 228 233 240 245 252 256 260 265 269 273 278 285 290 296 300 304 308 312 317 324 329 334 341 346 0
d 352 351 8 61 0
d 353 351 8 61 0
d 354 1 2 3 7 8 9 14 19 20 25 30 31 36 41 50 55 60 61 66 71 76 77 82 87 94 99 104 111 116 121 126 131 136 141 148 153 158 165 170 175 182 187 192 199 204 211 216 221 228 233 240 245 252 256 260 265 269 273 278 285 290 296 300 304 308 312 317 324 329 334 341 346 351 0
d 356 355 31 20 0
d 357 355 31 20 0
d 358 1 2 3 7 8 9 14 19 20 25 30 31 36 41 50 55 60 61 66 71 76 77 82 87 94 99 104 111 116 121 126 131 136 141 148 153 158 165 170 175 182 187 192 199 204 211 216 221 228 233 240 245 252 256 260 265 269 273 278 285 290 296 300 304 308 312 317 324 329 334 341 346 351 355 0
d 360 359 355 0
d 361 359 355 0
d 362 1 2 3 7 8 9 14 19 20 25 30 31 36 41 50 55 60 61 66 71 76 77 82 87 94 99 104 111 116 121 126 131 136 141 148 153 158 165 170 175 182 187 192 199 204 211 216 221 228 233 240 245 252 256 260 265 269 273 278 285 290 296 300 304 308 312 317 324 329 334 341 346 351 355 359 0
d 364 363 77 3 0
d 365 363 77 3 0
d 366 1 2 3 7 8 9 14 19 20 25 30 31 36 41 50 55 60 61 66 71 76 77 82 87 94 99 104 111 116 121 126 131 136 141 148 153 158 165 170 175 182 187 192 199 204 211 216 221 228 233 240 245 252 256 260 265 269 273 278 285 290 296 300 304 308 312 317 324 329 334 341 346 351 355 359 363 0
d 368 363 2 0
d 369 367 363 2 0
d 370 367 363 2 0
d 371 1 2 3 7 8 9 14 19 20 25 30 31 36 41 50 55 60 61 66 71 76 77 82 87 94 99 104 111 116 121 126 131 136 141 148 153 158 165 170 175 182 187 192 199 204 211 216 221 228 233 240 245 252 256 260 265 269 273 278 285 290 296 300 304 308 312 317 324 329 334 341 346 351 355 359 363 367 0
d 373 312 317 0
d 374 304 308 0
d 375 312 317 304 308 0
d 376 372 312 317 304 308 0
d 377 372 312 317 304 308 0
d 378 1 2 3 7 8 9 14 19 20 25 30 31 36 41 50 55 60 61 66 71 76 77 82 87 94 99 104 111 116 121 126 131 136 141 148 153 158 165 170 175 182 187 192 199 204 211 216 221 228 233 240 245 252 256 260 265 269 273 278 285 290 296 300 304 308 312 317 324 329 334 341 346 351 355 359 363 367 372 0
d 380 367 372 0
d 381 379 367 372 0
d 382 379 367 372 0
d 383 1 2 3 7 8 9 14 19 20 25 30 31 36 41 50 55 60 61 66 71 76 77 82 87 94 99 104 111 116 121 126 131 136 141 148 153 158 165 170 175 182 187 192 199 204 211 216 221 228 233 240 245 252 256 260 265 269 273 278 285 290 296 300 304 308 312 317 324 329 334 341 346 351 355 359 363 367 372 379 0
d 385 384 379 0
d 386 384 379 0
d 387 1 2 3 7 8 9 14 19 20 25 30 31 36 41 50 55 60 61 66 71 76 77 82 87 94 99 104 111 116 121 126 131 136 141 148 153 158 165 170 175 182 187 192 199 204 211 216 221 228 233 240 245 252 256 260 265 269 273 278 285 290 296 300 304 308 312 317 324 329 334 341 346 351 355 359 363 367 372 379 384 0
d 389 329 334 0
d 390 300 324 0
d 391 329 334 300 324 0
d 392 388 329 334 300 324 0
d 393 388 329 334 300 324 0
d 394 1 2 3 7 8 9 14 19 20 25 30 31 36 41 50 55 60 61 66 71 76 77 82 87 94 99 104 111 116 121 126 131 136 141 148 153 158 165 170 175 182 187 192 199 204 211 216 221 228 233 240 245 252 256 260 265 269 273 278 285 290 296 300 304 308 312 317 324 329 334 341 346 351 355 359 363 367 372 379 384 388 0
d 397 359 384 388 0
d 398 395 359 384 388 0
d 399 395 359 384 388 0
d 400 1 2 3 7 8 9 14 19 20 25 30 31 36 41 50 55 60 61 66 71 76 77 82 87 94 99 104 111 116 121 126 131 136 141 148 153 158 165 170 175 182 187 192 199 204 211 216 221 228 233 240 245 252 256 260 265 269 273 278 285 290 296 300 304 308 312 317 324 329 334 341 346 351 355 359 363 367 372 379 384 388 395 0
d 402 351 395 0
d 403 351 395 0
d 404 401 351 395 0
d 405 401 351 395 0
d 406 1 2 3 7 8 9 14 19 20 25 30 31 36 41 50 55 60 61 66 71 76 77 82 87 94 99 104 111 116 121 126 131 136 141 148 153 158 165 170 175 182 187 192 199 204 211 216 221 228 233 240 245 252 256 260 265 269 273 278 285 290 296 300 304 308 312 317 324 329 334 341 346 351 355 359 363 367 372 379 384 388 395 401 0
d 408 346 2 0
d 409 296 341 0
d 410 346 2 296 341 0
d 411 407 346 2 296 341 0
d 412 407 346 2 296 341 0
d 413 1 2 3 7 8 9 14 19 20 25 30 31 36 41 50 55 60 61 66 71 76 77 82 87 94 99 104 111 116 121 126 131 136 141 148 153 158 165 170 175 182 187 192 199 204 211 216 221 228 233 240 245 252 256 260 265 269 273 278 285 290 296 300 304 308 312 317 324 329 334 341 346 351 355 359 363 367 372 379 384 388 395 401 407 0
d 415 414 77 20 0
d 416 414 77 20 0
d 417 1 2 3 7 8 9 14 19 20 25 30 31 36 41 50 55 60 61 66 71 76 77 82 87 94 99 104 111 116 121 126 131 136 141 148 153 158 165 170 175 182 187 192 199 204 211 216 221 228 233 240 245 252 256 260 265 269 273 278 285 290 296 300 304 308 312 317 324 329 334 341 346 351 355 359 363 367 372 379 384 388 395 401 407 414 0
d 419 367 372 0
d 420 363 2 0
d 421 367 372 363 2 0
d 422 418 367 372 363 2 0
d 423 418 367 372 363 2 0
d 424 1 2 3 7 8 9 14 19 20 25 30 31 36 41 50 55 60 61 66 71 76 77 82 87 94 99 104 111 116 121 126 131 136 141 148 153 158 165 170 175 182 187 192 199 204 211 216 221 228 233 240 245 252 256 260 265 269 273 278 285 290 296 300 304 308 312 317 324 329 334 341 346 351 355 359 363 367 372 379 384 388 395 401 407 414 418 0
d 426 414 418 0
d 427 425 414 418 0
d 428 425 414 418 0
d 429 1 2 3 7 8 9 14 19 20 25 30 31 36 41 50 55 60 61 66 71 76 77 82 87 94 99 104 111 116 121 126 131 136 141 148 153 158 165 170 175 182 187 192 199 204 211 216 221 228 233 240 245 252 256 260 265 269 273 278 285 290 296 300 304 308 312 317 324 329 334 341 346 351 355 359 363 367 372 379 384 388 395 401 407 414 418 425 0
d 431 359 384 388 0
d 432 355 379 0
d 433 359 384 388 355 379 0
d 434 430 359 384 388 355 379 0
d 435 430 359 384 388 355 379 0
d 436 1 2 3 7 8 9 14 19 20 25 30 31 36 41 50 55 60 61 66 71 76 77 82 87 94 99 104 111 116 121 126 131 136 141 148 153 158 165 170 175 182 187 192 199 204 211 216 221 228 233 240 245 252 256 260 265 269 273 278 285 290 296 300 304 308 312 317 324 329 334 341 346 351 355 359 363 367 372 379 384 388 395 401 407 414 418 425 430 0
d 438 425 430 0
d 439 437 425 430 0
d 440 437 425 430 0
d 441 1 2 3 7 8 9 14 19 20 25 30 31 36 41 50 55 60 61 66 71 76 77 82 87 94 99 104 111 116 121 126 131 136 141 148 153 158 165 170 175 182 187 192 199 204 211 216 221 228 233 240 245 252 256 260 265 269 273 278 285 290 296 300 304 308 312 317 324 329 334 341 346 351 355 359 363 367 372 379 384 388 395 401 407 414 418 425 430 437 0
d 444 31 61 437 0
d 445 442 31 61 437 0
d 446 442 31 61 437 0
d 447 1 2 3 7 8 9 14 19 20 25 30 31 36 41 50 55 60 61 66 71 76 77 82 87 94 99 104 111 116 121 126 131 136 141 148 153 158 165 170 175 182 187 192 199 204 211 216 221 228 233 240 245 252 256 260 265 269 273 278 285 290 296 300 304 308 312 317 324 329 334 341 346 351 355 359 363 367 372 379 384 388 395 401 407 414 418 425 430 437 442 0
d 449 401 407 0
d 450 351 395 0
d 451 401 407 351 395 0
d 452 448 401 407 351 395 0
d 453 448 401 407 351 395 0
d 454 1 2 3 7 8 9 14 19 20 25 30 31 36 41 50 55 60 61 66 71 76 77 82 87 94 99 104 111 116 121 126 131 136 141 148 153 158 165 170 175 182 187 192 199 204 211 216 221 228 233 240 245 252 256 260 265 269 273 278 285 290 296 300 304 308 312 317 324 329 334 341 346 351 355 359 363 367 372 379 384 388 395 401 407 414 418 425 430 437 442 448 0
d 456 455 77 61 0
d 457 455 77 61 0
d 458 1 2 3 7 8 9 14 19 20 25 30 31 36 41 50 55 60 61 66 71 76 77 82 87 94 99 104 111 116 121 126 131 136 141 148 153 158 165 170 175 182 187 192 199 204 211 216 221 228 233 240 245 252 256 260 265 269 273 278 285 290 296 300 304 308 312 317 324 329 334 341 346 351 355 359 363 367 372 379 384 388 395 401 407 414 418 425 430 437 442 448 455 0
d 460 425 430 0
d 461 414 418 0
d 462 425 430 414 418 0
d 463 459 425 430 414 418 0
d 464 459 425 430 414 418 0
d 465 1 2 3 7 8 9 14 19 20 25 30 31 36 41 50 55 60 61 66 71 76 77 82 87 94 99 104 111 116 121 126 131 136 141 148 153 158 165 170 175 182 187 192 199 204 211 216 221 228 233 240 245 252 256 260 265 269 273 278 285 290 296 300 304 308 312 317 324 329 334 341 346 351 355 359 363 367 372 379 384 388 395 401 407 414 418 425 430 437 442 448 455 459 0
d 467 455 459 0
d 468 466 455 459 0
d 469 466 455 459 0
d 470 1 2 3 7 8 9 14 19 20 25 30 31 36 41 50 55 60 61 66 71 76 77 82 87 94 99 104 111 116 121 126 131 136 141 148 153 158 165 170 175 182 187 192 199 204 211 216 221 228 233 240 245 252 256 260 265 269 273 278 285 290 296 300 304 308 312 317 324 329 334 341 346 351 355 359 363 367 372 379 384 388 395 401 407 414 418 425 430 437 442 448 455 459 466 0
d 472 442 448 0
d 473 31 61 437 0
d 474 442 448 31 61 437 0
d 475 471 442 448 31 61 437 0
d 476 471 442 448 31 61 437 0
d 477 1 2 3 7 8 9 14 19 20 25 30 31 36 41 50 55 60 61 66 71 76 77 82 87 94 99 104 111 116 121 126 131 136 141 148 153 158 165 170 175 182 187 192 199 204 211 216 221 228 233 240 245 252 256 260 265 269 273 278 285 290 296 300 304 308 312 317 324 329 334 341 346 351 355 359 363 367 372 379 384 388 395 401 407 414 418 425 430 437 442 448 455 459 466 471 0
d 478 2 9 0
d 479 2 9 0
d 480 260 2 0
d 481 14 2 0
d 482 260 2 14 0
d 483 2 9 260 14 0
d 484 290 2 0
d 485 55 2 0
d 486 290 2 55 0
d 487 2 9 260 14 290 55 0
d 488 346 2 0
d 489 116 2 0
d 490 346 2 116 0
d 491 2 9 260 14 290 55 346 116 0
d 492 401 407 0
d 493 170 175 0
d 494 401 407 170 175 0
d 495 2 9 260 14 290 55 346 116 401 407 170 175 0
d 496 442 448 0
d 497 216 221 0
d 498 442 448 216 221 0
d 499 2 9 260 14 290 55 346 116 401 407 170 175 442 448 216 221 0
d 500 466 471 0
d 501 240 245 0
d 502 466 471 240 245 0
d 503 2 9 260 14 290 55 346 116 401 407 170 175 442 448 216 221 466 471 240 245 0
d 504 466 471 0
d 505 455 459 0
d 506 466 471 455 459 0
d 507 240 245 0
d 508 228 233 0
d 509 240 245 228 233 0
d 510 466 471 455 459 240 245 228 233 0
d 511 2 9 260 14 290 55 346 116 401 407 170 175 442 448 216 221 466 471 240 245 455 459 228 233 0
d 512 1 2 3 7 8 9 14 19 20 25 30 31 36 41 50 55 60 61 66 71 76 77 82 87 94 99 104 111 116 121 126 131 136 141 148 153 158 165 170 175 182 187 192 199 204 211 216 221 228 233 240 245 252 256 260 265 269 273 278 285 290 296 300 304 308 312 317 324 329 334 341 346 351 355 359 363 367 372 379 384 388 395 401 407 414 418 425 430 437 442 448 455 459 466 471 0
-4 2 0
-4 3 0
4 -2 -3 0
5 -1 -4 0
5 1 4 0
-5 -1 4 0
-5 1 -4 0
6 5 0
-6 -5 0
-10 8 0
-10 9 0
10 -8 -9 0
11 -7 -10 0
11 7 10 0
-11 -7 10 0
-11 7 -10 0
12 11 0
-12 -11 0
13 -6 0
13 -12 0
-13 6 12 0
15 -1 7 0
15 1 -7 0
-15 -1 -7 0
-15 1 7 0
16 -14 -15 0
16 14 15 0
-16 -14 15 0
-16 14 -15 0
17 16 0
-17 -16 0
18 -13 0
18 -17 0
-18 13 17 0
-21 2 0
-21 20 0
21 -2 -20 0
22 -19 -21 0
22 19 21 0
-22 -19 21 0
-22 19 -21 0
23 22 0
-23 -22 0
24 -18 0
24 -23 0
-24 18 23 0
-26 8 0
-26 3 0
26 -8 -3 0
27 -25 -26 0
27 25 26 0
-27 -25 26 0
-27 25 -26 0
28 27 0
-28 -27 0
29 -24 0
29 -28 0
-29 24 28 0
-32 31 0
-32 9 0
32 -31 -9 0
33 -30 -32 0
33 30 32 0
-33 -30 32 0
-33 30 -32 0
34 33 0
-34 -33 0
35 -29 0
35 -34 0
-35 29 34 0
37 -25 30 0
37 25 -30 0
-37 -25 -30 0
-37 25 30 0
38 -36 -37 0
38 36 37 0
-38 -36 37 0
-38 36 -37 0
39 38 0
-39 -38 0
40 -35 0
40 -39 0
-40 35 39 0
42 2 0
-42 -2 0
-43 2 0
-43 42 0
43 -2 -42 0
-44 14 0
-44 43 0
44 -14 -43 0
-45 1 0
-45 7 0
45 -1 -7 0
46 -44 0
46 -45 0
-46 44 45 0
47 -41 -46 0
47 41 46 0
-47 -41 46 0
-47 41 -46 0
48 47 0
-48 -47 0
49 -40 0
49 -48 0
-49 40 48 0
51 -36 41 0
51 36 -41 0
-51 -36 -41 0
-51 36 41 0
52 -50 -51 0
52 50 51 0
-52 -50 51 0
-52 50 -51 0
53 52 0
-53 -52 0
54 -49 0
54 -53 0
-54 49 53 0
56 -19 50 0
56 19 -50 0
-56 -19 -50 0
-56 19 50 0
57 -55 -56 0
57 55 56 0
-57 -55 56 0
-57 55 -56 0
58 57 0
-58 -57 0
59 -54 0
59 -58 0
-59 54 58 0
-62 2 0
-62 61 0
62 -2 -61 0
63 -60 -62 0
63 60 62 0
-63 -60 62 0
-63 60 -62 0
64 63 0
-64 -63 0
65 -59 0
65 -64 0
-65 59 64 0
-67 8 0
-67 20 0
67 -8 -20 0
68 -66 -67 0
68 66 67 0
-68 -66 67 0
-68 66 -67 0
69 68 0
-69 -68 0
70 -65 0
70 -69 0
-70 65 69 0
-72 31 0
-72 3 0
72 -31 -3 0
73 -71 -72 0
73 71 72 0
-73 -71 72 0
-73 71 -72 0
74 73 0
-74 -73 0
75 -70 0
75 -74 0
-75 70 74 0
-78 77 0
-78 9 0
78 -77 -9 0
79 -76 -78 0
79 76 78 0
-79 -76 78 0
-79 76 -78 0
80 79 0
-80 -79 0
81 -75 0
81 -80 0
-81 75 80 0
83 -71 76 0
83 71 -76 0
-83 -71 -76 0
-83 71 76 0
84 -82 -83 0
84 82 83 0
-84 -82 83 0
-84 82 -83 0
85 84 0
-85 -84 0
86 -81 0
86 -85 0
-86 81 85 0
-88 36 0
-88 41 0
88 -36 -41 0
-89 25 0
-89 30 0
89 -25 -30 0
90 -88 0
90 -89 0
-90 88 89 0
91 -87 -90 0
91 87 90 0
-91 -87 90 0
-91 87 -90 0
92 91 0
-92 -91 0
93 -86 0
93 -92 0
-93 86 92 0
95 -82 87 0
95 82 -87 0
-95 -82 -87 0
-95 82 87 0
96 -94 -95 0
96 94 95 0
-96 -94 95 0
-96 94 -95 0
97 96 0
-97 -96 0
98 -93 0
98 -97 0
-98 93 97 0
100 -66 94 0
100 66 -94 0
-100 -66 -94 0
-100 66 94 0
101 -99 -100 0
101 99 100 0
-101 -99 100 0
-101 99 -100 0
102 101 0
-102 -101 0
103 -98 0
103 -102 0
-103 98 102 0
-105 55 0
-105 43 0
105 -55 -43 0
-106 19 0
-106 50 0
106 -19 -50 0
107 -105 0
107 -106 0
-107 105 106 0
108 -104 -107 0
108 104 107 0
-108 -104 107 0
-108 104 -107 0
109 108 0
-109 -108 0
110 -103 0
110 -109 0
-110 103 109 0
112 -99 104 0
112 99 -104 0
-112 -99 -104 0
-112 99 104 0
113 -111 -112 0
113 111 112 0
-113 -111 112 0
-113 111 -112 0
114 113 0
-114 -113 0
115 -110 0
115 -114 0
-115 110 114 0
117 -60 111 0
117 60 -111 0
-117 -60 -111 0
-117 60 111 0
118 -116 -117 0
118 116 117 0
-118 -116 117 0
-118 116 -117 0
119 118 0
-119 -118 0
120 -115 0
120 -119 0
-120 115 119 0
-122 8 0
-122 61 0
122 -8 -61 0
123 -121 -122 0
123 121 122 0
-123 -121 122 0
-123 121 -122 0
124 123 0
-124 -123 0
125 -120 0
125 -124 0
-125 120 124 0
-127 31 0
-127 20 0
127 -31 -20 0
128 -126 -127 0
128 126 127 0
-128 -126 127 0
-128 126 -127 0
129 128 0
-129 -128 0
130 -125 0
130 -129 0
-130 125 129 0
-132 77 0
-132 3 0
132 -77 -3 0
133 -131 -132 0
133 131 132 0
-133 -131 132 0
-133 131 -132 0
134 133 0
-134 -133 0
135 -130 0
135 -134 0
-135 130 134 0
137 -131 43 0
137 131 -43 0
-137 -131 -43 0
-137 131 43 0
138 -136 -137 0
138 136 137 0
-138 -136 137 0
-138 136 -137 0
139 138 0
-139 -138 0
140 -135 0
140 -139 0
-140 135 139 0
-142 82 0
-142 87 0
142 -82 -87 0
-143 71 0
-143 76 0
143 -71 -76 0
144 -142 0
144 -143 0
-144 142 143 0
145 -141 -144 0
145 141 144 0
-145 -141 144 0
-145 141 -144 0
146 145 0
-146 -145 0
147 -140 0
147 -146 0
-147 140 146 0
149 -136 141 0
149 136 -141 0
-149 -136 -141 0
-149 136 141 0
150 -148 -149 0
150 148 149 0
-150 -148 149 0
-150 148 -149 0
151 150 0
-151 -150 0
152 -147 0
152 -151 0
-152 147 151 0
154 -126 148 0
154 126 -148 0
-154 -126 -148 0
-154 126 148 0
155 -153 -154 0
155 153 154 0
-155 -153 154 0
-155 153 -154 0
156 155 0
-156 -155 0
157 -152 0
157 -156 0
-157 152 156 0
-159 99 0
-159 104 0
159 -99 -104 0
-160 66 0
-160 94 0
160 -66 -94 0
161 -159 0
161 -160 0
-161 159 160 0
162 -158 -161 0
162 158 161 0
-162 -158 161 0
-162 158 -161 0
163 162 0
-163 -162 0
164 -157 0
164 -163 0
-164 157 163 0
166 -153 158 0
166 153 -158 0
-166 -153 -158 0
-166 153 158 0
167 -165 -166 0
167 165 166 0
-167 -165 166 0
-167 165 -166 0
168 167 0
-168 -167 0
169 -164 0
169 -168 0
-169 164 168 0
171 -121 165 0
171 121 -165 0
-171 -121 -165 0
-171 121 165 0
172 -170 -171 0
172 170 171 0
-172 -170 171 0
-172 170 -171 0
173 172 0
-173 -172 0
174 -169 0
174 -173 0
-174 169 173 0
-176 116 0
-176 43 0
176 -116 -43 0
-177 60 0
-177 111 0
177 -60 -111 0
178 -176 0
178 -177 0
-178 176 177 0
179 -175 -178 0
179 175 178 0
-179 -175 178 0
-179 175 -178 0
180 179 0
-180 -179 0
181 -174 0
181 -180 0
-181 174 180 0
-183 31 0
-183 61 0
183 -31 -61 0
184 -182 -183 0
184 182 183 0
-184 -182 183 0
-184 182 -183 0
185 184 0
-185 -184 0
186 -181 0
186 -185 0
-186 181 185 0
-188 77 0
-188 20 0
188 -77 -20 0
189 -187 -188 0
189 187 188 0
-189 -187 188 0
-189 187 -188 0
190 189 0
-190 -189 0
191 -186 0
191 -190 0
-191 186 190 0
-193 136 0
-193 141 0
193 -136 -141 0
-194 131 0
-194 43 0
194 -131 -43 0
195 -193 0
195 -194 0
-195 193 194 0
196 -192 -195 0
196 192 195 0
-196 -192 195 0
-196 192 -195 0
197 196 0
-197 -196 0
198 -191 0
198 -197 0
-198 191 197 0
200 -187 192 0
200 187 -192 0
-200 -187 -192 0
-200 187 192 0
201 -199 -200 0
201 199 200 0
-201 -199 200 0
-201 199 -200 0
202 201 0
-202 -201 0
203 -198 0
203 -202 0
-203 198 202 0
-205 153 0
-205 158 0
205 -153 -158 0
-206 126 0
-206 148 0
206 -126 -148 0
207 -205 0
207 -206 0
-207 205 206 0
208 -204 -207 0
208 204 207 0
-208 -204 207 0
-208 204 -207 0
209 208 0
-209 -208 0
210 -203 0
210 -209 0
-210 203 209 0
212 -199 204 0
212 199 -204 0
-212 -199 -204 0
-212 199 204 0
213 -211 -212 0
213 211 212 0
-213 -211 212 0
-213 211 -212 0
214 213 0
-214 -213 0
215 -210 0
215 -214 0
-215 210 214 0
217 -182 211 0
217 182 -211 0
-217 -182 -211 0
-217 182 211 0
218 -216 -217 0
218 216 217 0
-218 -216 217 0
-218 216 -217 0
219 218 0
-219 -218 0
220 -215 0
220 -219 0
-220 215 219 0
-222 170 0
-222 175 0
222 -170 -175 0
-223 121 0
-223 165 0
223 -121 -165 0
224 -222 0
224 -223 0
-224 222 223 0
225 -221 -224 0
225 221 224 0
-225 -221 224 0
-225 221 -224 0
226 225 0
-226 -225 0
227 -220 0
227 -226 0
-227 220 226 0
-229 77 0
-229 61 0
229 -77 -61 0
230 -228 -229 0
230 228 229 0
-230 -228 229 0
-230 228 -229 0
231 230 0
-231 -230 0
232 -227 0
232 -231 0
-232 227 231 0
-234 199 0
-234 204 0
234 -199 -204 0
-235 187 0
-235 192 0
235 -187 -192 0
236 -234 0
236 -235 0
-236 234 235 0
237 -233 -236 0
237 233 236 0
-237 -233 236 0
-237 233 -236 0
238 237 0
-238 -237 0
239 -232 0
239 -238 0
-239 232 238 0
241 -228 233 0
241 228 -233 0
-241 -228 -233 0
-241 228 233 0
242 -240 -241 0
242 240 241 0
-242 -240 241 0
-242 240 -241 0
243 242 0
-243 -242 0
244 -239 0
244 -243 0
-244 239 243 0
-246 216 0
-246 221 0
246 -216 -221 0
-247 182 0
-247 211 0
247 -182 -211 0
248 -246 0
248 -247 0
-248 246 247 0
249 -245 -248 0
249 245 248 0
-249 -245 248 0
-249 245 -248 0
250 249 0
-250 -249 0
251 -244 0
251 -250 0
-251 244 250 0
253 -252 -4 0
253 252 4 0
-253 -252 4 0
-253 252 -4 0
254 253 0
-254 -253 0
255 -251 0
255 -254 0
-255 251 254 0
257 -256 -10 0
257 256 10 0
-257 -256 10 0
-257 256 -10 0
258 257 0
-258 -257 0
259 -255 0
259 -258 0
-259 255 258 0
261 -252 256 0
261 252 -256 0
-261 -252 -256 0
-261 252 256 0
262 -260 -261 0
262 260 261 0
-262 -260 261 0
-262 260 -261 0
263 262 0
-263 -262 0
264 -259 0
264 -263 0
-264 259 263 0
266 -265 -26 0
266 265 26 0
-266 -265 26 0
-266 265 -26 0
267 266 0
-267 -266 0
268 -264 0
268 -267 0
-268 264 267 0
270 -269 -32 0
270 269 32 0
-270 -269 32 0
-270 269 -32 0
271 270 0
-271 -270 0
272 -268 0
272 -271 0
-272 268 271 0
274 -265 269 0
274 265 -269 0
-274 -265 -269 0
-274 265 269 0
275 -273 -274 0
275 273 274 0
-275 -273 274 0
-275 273 -274 0
276 275 0
-276 -275 0
277 -272 0
277 -276 0
-277 272 276 0
-279 260 0
-279 43 0
279 -260 -43 0
-280 252 0
-280 256 0
280 -252 -256 0
281 -279 0
281 -280 0
-281 279 280 0
282 -278 -281 0
282 278 281 0
-282 -278 281 0
-282 278 -281 0
283 282 0
-283 -282 0
284 -277 0
284 -283 0
-284 277 283 0
286 -273 278 0
286 273 -278 0
-286 -273 -278 0
-286 273 278 0
287 -285 -286 0
287 285 286 0
-287 -285 286 0
-287 285 -286 0
288 287 0
-288 -287 0
289 -284 0
289 -288 0
-289 284 288 0
292 -291 285 0
292 291 -285 0
-292 -291 -285 0
-292 291 285 0
293 -290 -292 0
293 290 292 0
-293 -290 292 0
-293 290 -292 0
294 293 0
-294 -293 0
295 -289 0
295 -294 0
-295 289 294 0
297 -296 -62 0
297 296 62 0
-297 -296 62 0
-297 296 -62 0
298 297 0
-298 -297 0
299 -295 0
299 -298 0
-299 295 298 0
301 -300 -67 0
301 300 67 0
-301 -300 67 0
-301 300 -67 0
302 301 0
-302 -301 0
303 -299 0
303 -302 0
-303 299 302 0
305 -304 -72 0
305 304 72 0
-305 -304 72 0
-305 304 -72 0
306 305 0
-306 -305 0
307 -303 0
307 -306 0
-307 303 306 0
309 -308 -78 0
309 308 78 0
-309 -308 78 0
-309 308 -78 0
310 309 0
-310 -309 0
311 -307 0
311 -310 0
-311 307 310 0
313 -304 308 0
313 304 -308 0
-313 -304 -308 0
-313 304 308 0
314 -312 -313 0
314 312 313 0
-314 -312 313 0
-314 312 -313 0
315 314 0
-315 -314 0
316 -311 0
316 -315 0
-316 311 315 0
-318 273 0
-318 278 0
318 -273 -278 0
-319 265 0
-319 269 0
319 -265 -269 0
320 -318 0
320 -319 0
-320 318 319 0
321 -317 -320 0
321 317 320 0
-321 -317 320 0
-321 317 -320 0
322 321 0
-322 -321 0
323 -316 0
323 -322 0
-323 316 322 0
325 -312 317 0
325 312 -317 0
-325 -312 -317 0
-325 312 317 0
326 -324 -325 0
326 324 325 0
-326 -324 325 0
-326 324 -325 0
327 326 0
-327 -326 0
328 -323 0
328 -327 0
-328 323 327 0
330 -300 324 0
330 300 -324 0
-330 -300 -324 0
-330 300 324 0
331 -329 -330 0
331 329 330 0
-331 -329 330 0
-331 329 -330 0
332 331 0
-332 -331 0
333 -328 0
333 -332 0
-333 328 332 0
-335 290 0
-335 43 0
335 -290 -43 0
-336 291 0
-336 285 0
336 -291 -285 0
337 -335 0
337 -336 0
-337 335 336 0
338 -334 -337 0
338 334 337 0
-338 -334 337 0
-338 334 -337 0
339 338 0
-339 -338 0
340 -333 0
340 -339 0
-340 333 339 0
342 -329 334 0
342 329 -334 0
-342 -329 -334 0
-342 329 334 0
343 -341 -342 0
343 341 342 0
-343 -341 342 0
-343 341 -342 0
344 343 0
-344 -343 0
345 -340 0
345 -344 0
-345 340 344 0
347 -296 341 0
347 296 -341 0
-347 -296 -341 0
-347 296 341 0
348 -346 -347 0
348 346 347 0
-348 -346 347 0
-348 346 -347 0
349 348 0
-349 -348 0
350 -345 0
350 -349 0
-350 345 349 0
352 -351 -122 0
352 351 122 0
-352 -351 122 0
-352 351 -122 0
353 352 0
-353 -352 0
354 -350 0
354 -353 0
-354 350 353 0
356 -355 -127 0
356 355 127 0
-356 -355 127 0
-356 355 -127 0
357 356 0
-357 -356 0
358 -354 0
358 -357 0
-358 354 357 0
360 -359 -355 0
360 359 355 0
-360 -359 355 0
-360 359 -355 0
361 360 0
-361 -360 0
362 -358 0
362 -361 0
-362 358 361 0
364 -363 -132 0
364 363 132 0
-364 -363 132 0
-364 363 -132 0
365 364 0
-365 -364 0
366 -362 0
366 -365 0
-366 362 365 0
368 -363 43 0
368 363 -43 0
-368 -363 -43 0
-368 363 43 0
369 -367 -368 0
369 367 368 0
-369 -367 368 0
-369 367 -368 0
370 369 0
-370 -369 0
371 -366 0
371 -370 0
-371 366 370 0
-373 312 0
-373 317 0
373 -312 -317 0
-374 304 0
-374 308 0
374 -304 -308 0
375 -373 0
375 -374 0
-375 373 374 0
376 -372 -375 0
376 372 375 0
-376 -372 375 0
-376 372 -375 0
377 376 0
-377 -376 0
378 -371 0
378 -377 0
-378 371 377 0
380 -367 372 0
380 367 -372 0
-380 -367 -372 0
-380 367 372 0
381 -379 -380 0
381 379 380 0
-381 -379 380 0
-381 379 -380 0
382 381 0
-382 -381 0
383 -378 0
383 -382 0
-383 378 382 0
385 -384 -379 0
385 384 379 0
-385 -384 379 0
-385 384 -379 0
386 385 0
-386 -385 0
387 -383 0
387 -386 0
-387 383 386 0
-389 329 0
-389 334 0
389 -329 -334 0
-390 300 0
-390 324 0
390 -300 -324 0
391 -389 0
391 -390 0
-391 389 390 0
392 -388 -391 0
392 388 391 0
-392 -388 391 0
-392 388 -391 0
393 392 0
-393 -392 0
394 -387 0
394 -393 0
-394 387 393 0
397 -396 388 0
397 396 -388 0
-397 -396 -388 0
-397 396 388 0
398 -395 -397 0
398 395 397 0
-398 -395 397 0
-398 395 -397 0
399 398 0
-399 -398 0
400 -394 0
400 -399 0
-400 394 399 0
402 -351 0
402 -395 0
-402 351 395 0
403 402 0
-403 -402 0
404 -401 -403 0
404 401 403 0
-404 -401 403 0
-404 401 -403 0
405 404 0
-405 -404 0
406 -400 0
406 -405 0
-406 400 405 0
-408 346 0
-408 43 0
408 -346 -43 0
-409 296 0
-409 341 0
409 -296 -341 0
410 -408 0
410 -409 0
-410 408 409 0
411 -407 -410 0
411 407 410 0
-411 -407 410 0
-411 407 -410 0
412 411 0
-412 -411 0
413 -406 0
413 -412 0
-413 406 412 0
415 -414 -188 0
415 414 188 0
-415 -414 188 0
-415 414 -188 0
416 415 0
-416 -415 0
417 -413 0
417 -416 0
-417 413 416 0
-419 367 0
-419 372 0
419 -367 -372 0
-420 363 0
-420 43 0
420 -363 -43 0
421 -419 0
421 -420 0
-421 419 420 0
422 -418 -421 0
422 418 421 0
-422 -418 421 0
-422 418 -421 0
423 422 0
-423 -422 0
424 -417 0
424 -423 0
-424 417 423 0
426 -414 418 0
426 414 -418 0
-426 -414 -418 0
-426 414 418 0
427 -425 -426 0
427 425 426 0
-427 -425 426 0
-427 425 -426 0
428 427 0
-428 -427 0
429 -424 0
429 -428 0
-429 424 428 0
-431 396 0
-431 388 0
431 -396 -388 0
-432 355 0
-432 379 0
432 -355 -379 0
433 -431 0
433 -432 0
-433 431 432 0
434 -430 -433 0
434 430 433 0
-434 -430 433 0
-434 430 -433 0
435 434 0
-435 -434 0
436 -429 0
436 -435 0
-436 429 435 0
438 -425 430 0
438 425 -430 0
-438 -425 -430 0
-438 425 430 0
439 -437 -438 0
439 437 438 0
-439 -437 438 0
-439 437 -438 0
440 439 0
-440 -439 0
441 -436 0
441 -440 0
-441 436 440 0
444 -443 437 0
444 443 -437 0
-444 -443 -437 0
-444 443 437 0
445 -442 -444 0
445 442 444 0
-445 -442 444 0
-445 442 -444 0
446 445 0
-446 -445 0
447 -441 0
447 -446 0
-447 441 446 0
-449 401 0
-449 407 0
449 -401 -407 0
-450 351 0
-450 395 0
450 -351 -395 0
451 -449 0
451 -450 0
-451 449 450 0
452 -448 -451 0
452 448 451 0
-452 -448 451 0
-452 448 -451 0
453 452 0
-453 -452 0
454 -447 0
454 -453 0
-454 447 453 0
456 -455 -229 0
456 455 229 0
-456 -455 229 0
-456 455 -229 0
457 456 0
-457 -456 0
458 -454 0
458 -457 0
-458 454 457 0
-460 425 0
-460 430 0
460 -425 -430 0
-461 414 0
-461 418 0
461 -414 -418 0
462 -460 0
462 -461 0
-462 460 461 0
463 -459 -462 0
463 459 462 0
-463 -459 462 0
-463 459 -462 0
464 463 0
-464 -463 0
465 -458 0
465 -464 0
-465 458 464 0
467 -455 459 0
467 455 -459 0
-467 -455 -459 0
-467 455 459 0
468 -466 -467 0
468 466 467 0
-468 -466 467 0
-468 466 -467 0
469 468 0
-469 -468 0
470 -465 0
470 -469 0
-470 465 469 0
-472 442 0
-472 448 0
472 -442 -448 0
-473 443 0
-473 437 0
473 -443 -437 0
474 -472 0
474 -473 0
-474 472 473 0
475 -471 -474 0
475 471 474 0
-475 -471 474 0
-475 471 -474 0
476 475 0
-476 -475 0
477 -470 0
477 -476 0
-477 470 476 0
-478 2 0
-478 9 0
478 -2 -9 0
479 -478 -478 0
479 478 478 0
-479 -478 478 0
-479 478 -478 0
480 -260 43 0
480 260 -43 0
-480 -260 -43 0
-480 260 43 0
481 -14 43 0
481 14 -43 0
-481 -14 -43 0
-481 14 43 0
482 -480 -481 0
482 480 481 0
-482 -480 481 0
-482 480 -481 0
-483 479 0
-483 482 0
483 -479 -482 0
484 -290 43 0
484 290 -43 0
-484 -290 -43 0
-484 290 43 0
485 -55 43 0
485 55 -43 0
-485 -55 -43 0
-485 55 43 0
486 -484 -485 0
486 484 485 0
-486 -484 485 0
-486 484 -485 0
-487 483 0
-487 486 0
487 -483 -486 0
488 -346 43 0
488 346 -43 0
-488 -346 -43 0
-488 346 43 0
489 -116 43 0
489 116 -43 0
-489 -116 -43 0
-489 116 43 0
490 -488 -489 0
490 488 489 0
-490 -488 489 0
-490 488 -489 0
-491 487 0
-491 490 0
491 -487 -490 0
492 -401 407 0
492 401 -407 0
-492 -401 -407 0
-492 401 407 0
493 -170 175 0
493 170 -175 0
-493 -170 -175 0
-493 170 175 0
494 -492 -493 0
494 492 493 0
-494 -492 493 0
-494 492 -493 0
-495 491 0
-495 494 0
495 -491 -494 0
496 -442 448 0
496 442 -448 0
-496 -442 -448 0
-496 442 448 0
497 -216 221 0
497 216 -221 0
-497 -216 -221 0
-497 216 221 0
498 -496 -497 0
498 496 497 0
-498 -496 497 0
-498 496 -497 0
-499 495 0
-499 498 0
499 -495 -498 0
500 -466 471 0
500 466 -471 0
-500 -466 -471 0
-500 466 471 0
501 -240 245 0
501 240 -245 0
-501 -240 -245 0
-501 240 245 0
502 -500 -501 0
502 500 501 0
-502 -500 501 0
-502 500 -501 0
-503 499 0
-503 502 0
503 -499 -502 0
-504 466 0
-504 471 0
504 -466 -471 0
-505 455 0
-505 459 0
505 -455 -459 0
506 -504 0
506 -505 0
-506 504 505 0
-507 240 0
-507 245 0
507 -240 -245 0
-508 228 0
-508 233 0
508 -228 -233 0
509 -507 0
509 -508 0
-509 507 508 0
510 -506 -509 0
510 506 509 0
-510 -506 509 0
-510 506 -509 0
-511 503 0
-511 510 0
511 -503 -510 0
512 -477 0
512 -511 0
-512 477 511 0
512 0
